tsp_instances/TSP50/instance103.tsp
NODE_COORD_SECTION
0 11 0
1 95 132
2 140 52
3 155 160
4 99 80
5 39 200
6 147 164
7 121 54
8 48 111
9 80 153
10 85 5
11 197 114
12 95 160
13 3 176
14 104 159
15 181 162
16 37 103
17 22 183
18 130 64
19 97 3
20 128 25
21 130 155
22 69 121
23 200 18
24 161 127
25 79 190
26 194 53
27 43 18
28 151 195
29 15 118
30 153 4
31 10 183
32 130 97
33 132 164
34 25 155
35 106 22
36 132 153
37 92 116
38 176 114
39 49 65
40 137 14
41 128 60
42 141 124
43 42 128
44 25 169
45 119 115
46 32 91
47 55 185
48 67 2
49 195 102
