tsp_instances/TSP50/instance103.opt.tour
TOUR_SECTION
1
28
40
47
17
9
44
30
35
45
14
32
18
6
48
26
10
23
38
2
13
15
22
37
34
29
7
4
16
12
50
39
25
43
46
33
5
8
42
19
3
27
24
31
41
21
36
20
11
49
-1